(set-logic QF_S)
(declare-fun var_0xINPUT_142378 () String)
(assert (and (= (len var_0xINPUT_142378) 0) (= (len var_0xINPUT_142378) 0) (not (= var_0xINPUT_142378 "Example:")) (not (= var_0xINPUT_142378 "CQALcCP5TB"))))
(check-sat var_0xINPUT_142378)